
Gurobi 10.0.1 (linux64) logging started Sun Nov 26 15:56:59 2023

Set parameter LogFile to value "ArtificialInstance/ExperimentV2/S4T4K2/AdRo/gurobiSpRo33.txt"
Gurobi Optimizer version 10.0.1 build v10.0.1rc0 (linux64)

CPU model: AMD EPYC 7H12 64-Core Processor, instruction set [SSE2|AVX|AVX2]
Thread count: 128 physical cores, 128 logical processors, using up to 32 threads

Academic license 656792 - for non-commercial use only - registered to b.___@student.vu.nl
Optimize a model with 11354 rows, 10816 columns and 42015 nonzeros
Model fingerprint: 0x12910baf
Variable types: 1 continuous, 10815 integer (10815 binary)
Coefficient statistics:
  Matrix range     [1e+00, 4e+01]
  Objective range  [1e+00, 2e+01]
  Bounds range     [1e+00, 1e+00]
  RHS range        [1e+00, 1e+00]
Presolve removed 4191 rows and 3922 columns
Presolve time: 0.16s
Presolved: 7163 rows, 6894 columns, 26847 nonzeros
Variable types: 1 continuous, 6893 integer (6893 binary)

Root relaxation: objective 7.877141e+01, 1979 iterations, 0.06 seconds (0.04 work units)

    Nodes    |    Current Node    |     Objective Bounds      |     Work
 Expl Unexpl |  Obj  Depth IntInf | Incumbent    BestBd   Gap | It/Node Time

     0     0   78.77141    0   35          -   78.77141      -     -    0s
H    0     0                     113.2467999   78.77141  30.4%     -    0s
H    0     0                      78.7714115   78.77141  0.00%     -    0s

Explored 1 nodes (3703 simplex iterations) in 0.36 seconds (0.25 work units)
Thread count was 32 (of 128 available processors)

Solution count 2: 78.7714 113.247 

Optimal solution found (tolerance 1.00e-04)
Best objective 7.877141145559e+01, best bound 7.877141145559e+01, gap 0.0000%
